NAME: random-48-480
TYPE: TSP
COMMENT: size=48 seed=480
DIMENSION: 98
EDGE_WEIGHT_TYPE: EUC_2D
NODE_COORD_SECTION
+0 360 759
-0 360 759
+1 415 625
-1 886 165
+2 118 464
-2 152 97
+3 654 808
-3 585 102
+4 626 979
-4 152 56
+5 40 257
-5 866 798
+6 118 796
-6 52 929
+7 927 408
-7 468 325
+8 885 926
-8 409 261
+9 879 659
-9 595 855
+10 814 823
-10 778 713
+11 936 602
-11 399 352
+12 10 137
-12 31 277
+13 82 363
-13 356 87
+14 769 870
-14 308 677
+15 762 106
-15 711 529
+16 449 101
-16 791 19
+17 702 195
-17 760 832
+18 396 854
-18 862 86
+19 443 752
-19 845 377
+20 341 300
-20 391 970
+21 8 206
-21 9 764
+22 567 418
-22 423 931
+23 704 198
-23 859 998
+24 221 19
-24 777 367
+25 201 632
-25 441 445
+26 529 562
-26 865 855
+27 488 287
-27 994 607
+28 498 731
-28 347 652
+29 988 526
-29 719 646
+30 979 603
-30 473 734
+31 836 660
-31 90 995
+32 238 416
-32 185 336
+33 776 391
-33 465 738
+34 967 470
-34 273 445
+35 99 554
-35 138 423
+36 943 388
-36 204 583
+37 513 482
-37 926 773
+38 780 655
-38 929 646
+39 900 936
-39 594 385
+40 694 364
-40 898 841
+41 829 616
-41 612 124
+42 942 508
-42 366 145
+43 772 421
-43 122 975
+44 713 912
-44 415 514
+45 751 761
-45 524 511
+46 696 159
-46 158 708
+47 400 389
-47 898 66
+48 464 576
-48 786 333
PRECEDENCE_SECTION
+0 -0
+1 -1
+2 -2
+3 -3
+4 -4
+5 -5
+6 -6
+7 -7
+8 -8
+9 -9
+10 -10
+11 -11
+12 -12
+13 -13
+14 -14
+15 -15
+16 -16
+17 -17
+18 -18
+19 -19
+20 -20
+21 -21
+22 -22
+23 -23
+24 -24
+25 -25
+26 -26
+27 -27
+28 -28
+29 -29
+30 -30
+31 -31
+32 -32
+33 -33
+34 -34
+35 -35
+36 -36
+37 -37
+38 -38
+39 -39
+40 -40
+41 -41
+42 -42
+43 -43
+44 -44
+45 -45
+46 -46
+47 -47
+48 -48
EOF
